%NProcShared=4
# Opt Freq SCRF=(CPCM,Solvent=Water) Here could be your advertisement PM3

Molecule

0 1
C   3.5572  -0.5896   0.8941
C   2.4080   0.0741   0.2153
O   2.6279   0.9708  -0.6434
O   1.1084  -0.3866   0.4626
C  -0.0732   0.2763   0.0921
C  -0.1301   1.6836   0.0556
C  -1.3098   2.3379  -0.2995
C  -2.4499   1.6011  -0.6118
C  -2.4181   0.2067  -0.5620
C  -1.2382  -0.4747  -0.2057
C  -1.2494  -1.9604  -0.1642
O  -0.2089  -2.6096   0.1263
O  -2.4208  -2.6578  -0.4497
H   3.2315  -1.0014   1.8721
H   4.3737   0.1429   1.0678
H   3.9351  -1.4166   0.2578
H   0.7287   2.2804   0.3307
H  -1.3423   3.4196  -0.3235
H  -3.3643   2.1116  -0.8856
H  -3.3223  -0.3378  -0.8032
H  -2.4431  -3.6704  -0.4257

