%NProcShared=4
# Opt Freq SCRF=(CPCM,Solvent=Water) Here could be your advertisement PM3

Molecule

0 1
C   3.5467  -1.0832   0.2196
C   2.4142  -0.1455  -0.0253
O   2.6489   1.0039  -0.4876
O   1.1006  -0.5962   0.1584
C  -0.0410   0.2211   0.1991
C   0.0265   1.5298   0.7166
C  -1.1128   2.3331   0.7678
C  -2.3348   1.8410   0.3152
C  -2.4250   0.5402  -0.1825
C  -1.2879  -0.2883  -0.2431
C  -1.4296  -1.6673  -0.7793
O  -0.4329  -2.4331  -0.8732
O  -2.6772  -2.1322  -1.1888
H   3.2595  -1.8291   0.9900
H   4.4365  -0.5232   0.5772
H   3.7997  -1.6115  -0.7230
H   0.9538   1.9231   1.1101
H  -1.0495   3.3368   1.1681
H  -3.2175   2.4661   0.3575
H  -3.3901   0.1840  -0.5200
H  -2.7887  -3.0695  -1.5566

